\* Service_Selection_Problem *\
Minimize
OBJ: 0.99 product_page_aws_sa_east_1_1_review_aws_sa_east_1_1
 + 0.0717391304348 product_page_aws_sa_east_1_1_review_aws_us_east_1_1
 + 0.066 product_page_aws_sa_east_1_1_review_gcp_eu_west_1_1
 + 0.495 product_page_aws_us_east_1_1_review_aws_sa_east_1_1
 + 0.99 product_page_aws_us_east_1_1_review_aws_us_east_1_1
 + 0.11 product_page_aws_us_east_1_1_review_gcp_eu_west_1_1
 + 0.726145833333 product_page_gcp_asia_east_1_1_review_aws_sa_east_1_1
 + 0.73 product_page_gcp_asia_east_1_1_review_aws_us_east_1_1
 + 0.996507352941 product_page_gcp_asia_east_1_1_review_gcp_eu_west_1_1
 + 0.723563218391 product_page_gcp_us_west_1_1_review_aws_sa_east_1_1
 + 0.73 product_page_gcp_us_west_1_1_review_aws_us_east_1_1
 + 0.993502824859 product_page_gcp_us_west_1_1_review_gcp_eu_west_1_1
Subject To
_C1: product_page_aws_us_east_1_1_review_aws_sa_east_1_1
 + product_page_aws_us_east_1_1_review_aws_us_east_1_1
 + product_page_aws_us_east_1_1_review_gcp_eu_west_1_1 = 29990
_C2: product_page_gcp_us_west_1_1_review_aws_sa_east_1_1
 + product_page_gcp_us_west_1_1_review_aws_us_east_1_1
 + product_page_gcp_us_west_1_1_review_gcp_eu_west_1_1 = 29990
_C3: product_page_gcp_eu_west_1_1_review_aws_sa_east_1_1
 + product_page_gcp_eu_west_1_1_review_aws_us_east_1_1
 + product_page_gcp_eu_west_1_1_review_gcp_eu_west_1_1 = 29990
_C4: product_page_aws_sa_east_1_1_review_aws_sa_east_1_1
 + product_page_aws_sa_east_1_1_review_aws_us_east_1_1
 + product_page_aws_sa_east_1_1_review_gcp_eu_west_1_1 = 29990
_C5: product_page_gcp_asia_east_1_1_review_aws_sa_east_1_1
 + product_page_gcp_asia_east_1_1_review_aws_us_east_1_1
 + product_page_gcp_asia_east_1_1_review_gcp_eu_west_1_1 = 29990
_C6: product_page_aws_sa_east_1_1_review_aws_us_east_1_1
 + product_page_aws_us_east_1_1_review_aws_us_east_1_1
 + product_page_gcp_asia_east_1_1_review_aws_us_east_1_1
 + product_page_gcp_eu_west_1_1_review_aws_us_east_1_1
 + product_page_gcp_us_west_1_1_review_aws_us_east_1_1 <= 60000
_C7: product_page_aws_sa_east_1_1_review_gcp_eu_west_1_1
 + product_page_aws_us_east_1_1_review_gcp_eu_west_1_1
 + product_page_gcp_asia_east_1_1_review_gcp_eu_west_1_1
 + product_page_gcp_eu_west_1_1_review_gcp_eu_west_1_1
 + product_page_gcp_us_west_1_1_review_gcp_eu_west_1_1 <= 60000
_C8: product_page_aws_sa_east_1_1_review_aws_sa_east_1_1
 + product_page_aws_us_east_1_1_review_aws_sa_east_1_1
 + product_page_gcp_asia_east_1_1_review_aws_sa_east_1_1
 + product_page_gcp_eu_west_1_1_review_aws_sa_east_1_1
 + product_page_gcp_us_west_1_1_review_aws_sa_east_1_1 <= 60000
Bounds
product_page_aws_sa_east_1_1_review_aws_sa_east_1_1 <= 29990
product_page_aws_sa_east_1_1_review_aws_us_east_1_1 <= 29990
product_page_aws_sa_east_1_1_review_gcp_eu_west_1_1 <= 29990
product_page_aws_us_east_1_1_review_aws_sa_east_1_1 <= 29990
product_page_aws_us_east_1_1_review_aws_us_east_1_1 <= 29990
product_page_aws_us_east_1_1_review_gcp_eu_west_1_1 <= 29990
product_page_gcp_asia_east_1_1_review_aws_sa_east_1_1 <= 29990
product_page_gcp_asia_east_1_1_review_aws_us_east_1_1 <= 29990
product_page_gcp_asia_east_1_1_review_gcp_eu_west_1_1 <= 29990
product_page_gcp_eu_west_1_1_review_aws_sa_east_1_1 <= 29990
product_page_gcp_eu_west_1_1_review_aws_us_east_1_1 <= 29990
product_page_gcp_eu_west_1_1_review_gcp_eu_west_1_1 <= 29990
product_page_gcp_us_west_1_1_review_aws_sa_east_1_1 <= 29990
product_page_gcp_us_west_1_1_review_aws_us_east_1_1 <= 29990
product_page_gcp_us_west_1_1_review_gcp_eu_west_1_1 <= 29990
End
